SECTION Graph
Nodes 304
Edges 571
E 1 18 15
E 1 259 2
E 1 268 7
E 2 3 2
E 2 267 3
E 2 268 1
E 3 251 23
E 4 98 203
E 5 225 15
E 5 247 4
E 5 252 2
E 5 255 7
E 6 7 2
E 6 9 4
E 6 255 1
E 7 256 1
E 7 260 3
E 8 204 15
E 8 247 2
E 9 253 1
E 10 12 7
E 10 249 15
E 10 258 2
E 10 259 1
E 11 12 2
E 11 15 3
E 11 258 7
E 11 264 1
E 12 266 1
E 12 267 1
E 13 15 7
E 13 241 15
E 13 254 2
E 13 258 3
E 14 15 2
E 14 254 7
E 14 256 3
E 14 260 1
E 15 261 1
E 16 194 15
E 16 234 1
E 16 240 2
E 16 248 7
E 17 18 2
E 17 248 1
E 17 249 1
E 17 259 15
E 18 250 1
E 18 251 2
E 19 123 3
E 19 129 7
E 19 130 8
E 20 21 3
E 20 127 2
E 20 128 1
E 21 129 1
E 21 133 8
E 22 114 3
E 22 117 7
E 22 118 27
E 23 24 3
E 23 116 1
E 24 117 1
E 24 120 27
E 25 27 7
E 25 130 2
E 25 158 61
E 25 185 49
E 26 27 2
E 26 129 8
E 26 130 7
E 26 133 1
E 27 135 1
E 27 200 49
E 28 119 1
E 28 121 2
E 28 124 7
E 29 33 4
E 29 119 7
E 29 124 1
E 29 125 1
E 30 121 7
E 30 124 2
E 30 127 1
E 30 128 2
E 31 33 7
E 31 118 2
E 31 119 4
E 32 33 2
E 32 117 27
E 32 118 7
E 32 120 1
E 33 122 1
E 34 112 1
E 34 113 2
E 34 115 7
E 35 39 7
E 35 112 7
E 35 115 1
E 36 113 7
E 36 115 2
E 36 116 2
E 37 109 1
E 37 110 2
E 37 111 7
E 38 109 7
E 38 111 1
E 39 110 7
E 39 111 2
E 40 49 2
E 40 271 7
E 41 42 2
E 41 270 2
E 41 271 1
E 43 223 1
E 43 242 7
E 43 257 24
E 44 45 1
E 44 236 3
E 44 239 1
E 45 242 1
E 45 263 24
E 46 146 15
E 46 166 1
E 46 170 2
E 46 179 7
E 47 97 2
E 47 173 1
E 47 174 1
E 47 199 15
E 48 97 1
E 48 179 1
E 48 181 2
E 48 207 15
E 49 51 7
E 49 262 2
E 50 51 2
E 50 54 4
E 50 262 7
E 50 269 1
E 51 270 1
E 51 271 2
E 52 54 7
E 52 257 2
E 52 262 4
E 53 54 2
E 53 242 24
E 53 257 7
E 53 263 1
E 54 265 1
E 55 57 7
E 55 75 15
E 55 178 2
E 55 180 1
E 56 57 2
E 56 60 3
E 56 178 7
E 56 187 1
E 57 190 1
E 57 191 1
E 58 60 7
E 58 150 15
E 58 170 2
E 58 178 3
E 59 60 2
E 59 170 7
E 59 179 2
E 59 181 1
E 60 183 1
E 61 63 7
E 61 142 15
E 61 157 2
E 61 163 1
E 62 63 2
E 62 157 7
E 62 168 1
E 62 171 1
E 63 173 1
E 63 174 1
E 64 66 7
E 64 108 2
E 65 66 2
E 65 107 14
E 65 108 7
E 66 109 45
E 67 69 7
E 67 101 16
E 67 103 2
E 67 104 20
E 68 69 2
E 68 103 7
E 69 106 20
E 70 76 3
E 70 177 7
E 71 72 2
E 71 175 3
E 71 177 1
E 71 205 15
E 72 212 15
E 73 82 3
E 73 147 2
E 73 152 7
E 74 75 2
E 74 150 3
E 74 152 1
E 74 178 15
E 75 155 1
E 75 160 1
E 76 78 7
E 76 159 2
E 77 78 2
E 77 81 1
E 77 159 7
E 77 172 1
E 78 175 1
E 78 177 3
E 79 81 7
E 79 154 2
E 79 159 1
E 80 81 2
E 80 154 7
E 80 155 6
E 80 167 1
E 81 169 1
E 82 84 7
E 82 139 2
E 83 84 2
E 83 139 7
E 83 144 2
E 83 148 1
E 84 150 1
E 84 152 3
E 85 87 7
E 85 136 2
E 85 137 1
E 86 87 2
E 86 136 7
E 86 141 1
E 86 143 1
E 87 144 1
E 87 145 1
E 88 90 7
E 88 131 2
E 88 132 1
E 89 90 2
E 89 93 2
E 89 131 7
E 89 153 16
E 90 138 1
E 90 156 16
E 91 93 7
E 91 131 2
E 92 93 2
E 92 149 16
E 93 151 16
E 94 96 7
E 94 102 2
E 95 96 2
E 95 101 20
E 95 102 7
E 95 104 16
E 96 105 16
E 97 176 1
E 97 203 15
E 98 99 2
E 98 100 7
E 99 101 7
E 99 102 20
E 100 101 2
E 100 103 16
E 104 105 2
E 104 106 7
E 105 107 7
E 105 108 14
E 106 107 2
E 110 112 7
E 113 114 2
E 114 116 7
E 116 117 3
E 120 122 2
E 121 123 2
E 122 125 4
E 123 128 7
E 124 126 1
E 125 126 1
E 126 127 2
E 128 129 3
E 132 134 2
E 132 138 7
E 133 135 2
E 134 136 1
E 134 141 7
E 135 204 49
E 137 139 2
E 137 144 7
E 138 140 1
E 138 141 2
E 140 142 2
E 140 157 15
E 141 142 1
E 142 143 1
E 143 145 2
E 143 163 15
E 144 146 1
E 145 146 1
E 145 166 15
E 146 148 2
E 147 154 6
E 147 155 7
E 148 150 2
E 148 170 15
E 149 151 2
E 149 158 7
E 151 153 2
E 151 161 7
E 152 155 2
E 153 156 2
E 153 164 7
E 156 157 1
E 156 168 7
E 158 161 2
E 160 162 2
E 160 180 15
E 161 164 2
E 162 165 2
E 162 182 15
E 163 166 2
E 163 173 7
E 164 168 2
E 164 185 16
E 165 167 1
E 165 184 15
E 166 176 7
E 167 169 2
E 167 186 15
E 168 188 16
E 169 172 1
E 169 189 15
E 171 174 2
E 171 192 15
E 172 175 2
E 172 193 15
E 173 176 2
E 174 196 15
E 175 197 15
E 176 179 1
E 180 182 2
E 180 190 7
E 181 183 2
E 181 215 15
E 182 184 2
E 182 195 7
E 183 187 3
E 183 220 15
E 184 186 1
E 184 202 8
E 185 188 2
E 185 200 7
E 186 189 2
E 186 201 7
E 187 191 2
E 187 228 15
E 188 192 1
E 188 208 7
E 189 193 1
E 189 209 7
E 190 194 1
E 190 195 2
E 191 194 1
E 191 234 15
E 192 196 2
E 192 210 7
E 193 197 2
E 193 213 7
E 194 198 2
E 195 198 1
E 195 201 3
E 196 199 1
E 196 218 7
E 197 205 3
E 197 219 7
E 198 202 2
E 198 240 15
E 199 203 2
E 199 221 7
E 200 204 1
E 200 208 2
E 201 206 1
E 201 209 2
E 202 206 1
E 202 243 15
E 203 207 1
E 203 226 7
E 204 211 2
E 205 212 2
E 205 227 7
E 206 214 2
E 207 215 2
E 207 229 7
E 208 210 1
E 208 211 1
E 209 213 1
E 209 214 1
E 210 216 1
E 210 218 2
E 211 216 1
E 211 247 15
E 212 223 3
E 212 233 7
E 213 217 1
E 213 219 2
E 214 217 1
E 215 220 2
E 215 235 7
E 216 222 2
E 217 224 2
E 218 221 1
E 218 222 1
E 219 224 1
E 219 227 3
E 220 228 3
E 220 238 7
E 221 225 1
E 221 226 2
E 222 225 1
E 223 239 7
E 224 231 3
E 225 230 2
E 226 229 1
E 226 230 1
E 227 231 1
E 227 233 2
E 228 234 2
E 228 244 7
E 229 232 1
E 229 235 2
E 230 232 1
E 230 252 15
E 231 236 2
E 232 237 2
E 233 236 1
E 233 239 3
E 234 246 7
E 235 237 1
E 235 238 2
E 237 241 2
E 237 254 15
E 238 241 1
E 238 244 3
E 239 242 1
E 240 243 2
E 240 250 7
E 241 245 3
E 243 251 8
E 244 245 1
E 244 246 2
E 245 249 2
E 245 258 15
E 246 248 1
E 246 249 1
E 247 253 7
E 248 250 2
E 252 254 3
E 252 256 7
E 253 255 4
E 255 256 2
E 259 266 7
E 260 261 2
E 261 264 3
E 263 265 2
E 264 267 2
E 265 269 4
E 266 268 2
E 269 270 2
E 1 272 100000
E 2 272 100000
E 3 272 100000
E 4 273 100000
E 5 274 100000
E 6 274 100000
E 7 274 100000
E 8 275 100000
E 9 275 100000
E 10 276 100000
E 11 276 100000
E 12 276 100000
E 13 277 100000
E 14 277 100000
E 15 277 100000
E 16 278 100000
E 17 278 100000
E 18 278 100000
E 19 279 100000
E 20 279 100000
E 21 279 100000
E 22 280 100000
E 23 280 100000
E 24 280 100000
E 25 281 100000
E 26 281 100000
E 27 281 100000
E 28 282 100000
E 29 282 100000
E 30 282 100000
E 31 283 100000
E 32 283 100000
E 33 283 100000
E 34 284 100000
E 35 284 100000
E 36 284 100000
E 37 285 100000
E 38 285 100000
E 39 285 100000
E 40 286 100000
E 41 286 100000
E 42 286 100000
E 43 287 100000
E 44 287 100000
E 45 287 100000
E 46 288 100000
E 47 288 100000
E 48 288 100000
E 49 289 100000
E 50 289 100000
E 51 289 100000
E 52 290 100000
E 53 290 100000
E 54 290 100000
E 55 291 100000
E 56 291 100000
E 57 291 100000
E 58 292 100000
E 59 292 100000
E 60 292 100000
E 61 293 100000
E 62 293 100000
E 63 293 100000
E 64 294 100000
E 65 294 100000
E 66 294 100000
E 67 295 100000
E 68 295 100000
E 69 295 100000
E 70 296 100000
E 71 296 100000
E 72 296 100000
E 73 297 100000
E 74 297 100000
E 75 297 100000
E 76 298 100000
E 77 298 100000
E 78 298 100000
E 79 299 100000
E 80 299 100000
E 81 299 100000
E 82 300 100000
E 83 300 100000
E 84 300 100000
E 85 301 100000
E 86 301 100000
E 87 301 100000
E 88 302 100000
E 89 302 100000
E 90 302 100000
E 91 303 100000
E 92 303 100000
E 93 303 100000
E 94 304 100000
E 95 304 100000
E 96 304 100000
E 97 288 100000
END

SECTION Terminals
Terminals 33
T 272
T 273
T 274
T 275
T 276
T 277
T 278
T 279
T 280
T 281
T 282
T 283
T 284
T 285
T 286
T 287
T 288
T 289
T 290
T 291
T 292
T 293
T 294
T 295
T 296
T 297
T 298
T 299
T 300
T 301
T 302
T 303
T 304
END

SECTION Tree Decomposition
s td 284 13 304
b 1 41 42 286
b 2 4 273
b 3 4 98
b 4 98 99 100
b 5 8 9 275
b 6 10 11 12 276
b 7 13 14 15 277
b 8 25 26 27 281
b 9 31 32 33 283
b 10 40 41 286
b 11 49 50 51 289
b 12 52 53 54 290
b 13 55 56 57 291
b 14 58 59 60 292
b 15 61 62 63 293
b 16 64 65 66 294
b 17 64 65 66 108
b 18 65 66 107 108
b 19 66 105 107 108
b 20 66 105 107 109
b 21 105 106 107 109
b 22 105 106 109
b 23 67 68 69 295
b 24 67 68 69 103
b 25 76 77 78 298
b 26 79 80 81 299
b 27 82 83 84 300
b 28 85 86 87 301
b 29 88 89 90 302
b 30 91 92 93 303
b 31 94 95 96 304
b 32 94 95 96 102
b 33 2 3 251 272
b 34 23 24 116 280
b 35 40 41 49 271
b 36 41 49 51 271
b 37 41 49 51 270
b 38 49 50 51 270
b 39 49 50 262 270
b 40 50 262 269 270
b 41 50 54 262 269
b 42 52 54 262 269
b 43 52 54 265 269
b 44 52 53 54 265
b 45 52 53 257 265
b 46 53 257 263 265
b 47 53 242 257 263
b 48 43 242 257 263
b 49 43 45 242 263
b 50 43 44 45 287
b 51 43 44 45 242
b 52 43 44 239 242
b 53 43 44 223 239
b 54 44 223 236 239
b 55 223 233 236 239
b 56 212 223 233 236
b 57 67 69 103 106
b 58 71 72 212 296
b 59 91 92 93 131
b 60 1 2 7 17 194 195 202 234 241 244 246 254 256
b 61 7 75 80 154 180 194 195 202 234 241 244 254 256
b 62 7 57 75 80 154 180 194 195 234 241 244 254 256
b 63 7 57 75 80 154 180 187 194 234 241 244 254 256
b 64 7 57 75 80 154 180 187 220 234 241 244 254 256
b 65 7 55 57 75 80 154 180 187 220 241 244 254 256
b 66 7 55 56 57 75 80 154 187 220 241 244 254 256
b 67 7 55 56 75 80 154 178 187 220 241 244 254 256
b 68 7 56 60 75 80 154 178 187 220 241 244 254 256
b 69 7 60 75 80 154 178 181 187 220 241 244 254 256
b 70 7 60 75 80 154 178 181 220 235 241 244 254 256
b 71 7 60 75 80 154 178 181 207 220 235 241 254 256
b 72 7 60 75 80 154 178 181 207 232 235 241 254 256
b 73 7 60 75 80 154 178 181 207 226 232 235 254 256
b 74 7 60 75 80 154 178 181 207 226 230 232 254 256
b 75 5 7 60 75 80 154 178 181 207 226 230 254 256
b 76 5 7 60 75 80 154 178 181 207 226 230 255 256
b 77 5 7 9 60 75 80 154 178 181 207 226 230 255
b 78 5 6 7 9 255
b 79 5 9 60 75 80 154 178 181 207 226 230 247 255
b 80 5 9 60 75 80 154 178 181 207 225 226 230 247
b 81 9 60 75 80 154 155 178 181 207 225 226 247
b 82 9 60 73 75 154 155 178 181 207 225 226 247
b 83 9 60 73 74 75 155 178 181 207 225 226 247
b 84 9 60 73 74 84 155 178 181 207 225 226 247
b 85 9 58 60 73 74 84 178 181 207 225 226 247
b 86 9 58 60 73 74 84 148 181 207 225 226 247
b 87 9 58 59 60 73 84 148 181 207 225 226 247
b 88 9 46 58 59 73 84 148 181 207 225 226 247
b 89 9 46 48 59 73 84 148 181 207 225 226 247
b 90 9 46 48 59 73 84 148 176 207 225 226 247
b 91 9 46 48 73 84 148 176 203 207 225 226 247
b 92 9 46 47 48 73 84 148 176 203 225 226 247
b 93 9 46 47 73 84 148 176 203 221 225 226 247
b 94 9 46 47 73 84 148 176 196 203 221 225 247
b 95 8 9 46 47 73 84 148 176 196 221 225 247
b 96 8 46 47 73 84 148 176 196 211 221 225 247
b 97 8 46 47 73 84 148 176 196 210 211 221 225
b 98 8 46 47 73 84 148 176 196 204 210 211
b 99 46 47 73 84 148 176 196 204 208 210 211
b 100 46 47 73 84 148 176 192 196 204 208 210
b 101 46 47 73 84 148 174 176 192 196 204 208
b 102 46 47 73 84 148 173 174 176 192 204 208
b 103 46 73 84 148 166 173 174 176 192 204 208
b 104 46 73 84 146 148 166 173 174 192 204 208
b 105 73 83 84 146 148 166 173 174 192 204 208
b 106 73 83 84 137 146 166 173 174 192 204 208
b 107 83 87 137 146 166 173 174 192 204 208
b 108 87 137 143 146 166 173 174 192 204 208
b 109 61 87 137 143 166 173 174 192 204 208
b 110 61 62 87 137 143 173 174 192 204 208
b 111 61 62 85 87 137 143 192 204 208
b 112 61 62 85 86 87 143 192 204 208
b 113 61 62 85 86 134 143 192 204 208
b 114 61 62 86 134 142 143 192 204 208
b 115 61 62 86 134 138 142 192 204 208
b 116 61 62 134 138 142 157 192 204 208
b 117 62 134 138 157 168 192 204 208
b 118 134 138 157 168 185 192 204 208
b 119 134 138 157 158 168 185 204 208
b 120 158 185 200 204 208
b 121 25 158 185 200 204
b 122 134 138 157 158 164 168 185
b 123 134 138 156 157 158 164 168
b 124 88 134 138 156 158 164
b 125 88 89 138 156 158 164
b 126 88 89 90 138 156
b 127 88 89 151 156 158 164
b 128 88 89 92 151 158
b 129 88 89 92 131 151
b 130 89 92 93 131 151
b 131 92 149 151 158
b 132 89 151 153 156 164
b 133 151 158 161 164
b 134 88 132 134 138
b 135 168 185 188 192 208
b 136 138 140 142 157
b 137 86 134 138 141 142
b 138 85 86 134 136
b 139 61 62 63 173 174
b 140 62 171 174 192
b 141 61 143 163 166 173
b 142 87 143 145 146 166
b 143 83 87 137 144 146
b 144 73 82 83 84 137
b 145 82 83 137 139
b 146 196 210 211 218 221 225
b 147 210 211 218 222 225
b 148 210 211 216 222
b 149 47 196 199 203 221
b 150 46 47 48 97 176 203
b 151 46 47 48 97 288
b 152 46 48 59 176 179
b 153 46 58 59 148 170
b 154 58 74 84 148 150
b 155 73 74 84 152 155
b 156 73 147 154 155
b 157 9 247 253 255
b 158 5 230 252 254 256
b 159 207 226 229 232 235
b 160 232 235 237 241 254
b 161 181 207 215 220 235
b 162 220 235 238 241 244
b 163 60 181 183 187 220
b 164 187 220 228 234 244
b 165 57 187 191 194 234
b 166 57 180 190 194 195
b 167 75 80 154 162 180 195 202
b 168 80 154 162 180 184 195 202
b 169 80 154 162 167 184 195 202
b 170 80 154 167 184 195 202 206
b 171 80 154 167 184 186 195 206
b 172 80 154 167 186 195 206 209
b 173 80 154 167 186 206 209 217
b 174 80 154 167 169 186 209 217
b 175 79 80 154 169 186 209 217
b 176 77 79 80 169 186 209 217
b 177 77 79 169 186 193 209 217
b 178 77 79 169 175 193 209 217
b 179 77 79 175 193 209 217 219
b 180 77 79 175 193 205 217 219
b 181 77 79 175 205 212 217 219
b 182 71 77 79 175 205 212
b 183 70 71 77 79 175 212
b 184 70 71 77 78 79 175
b 185 70 76 77 78 79
b 186 76 77 79 159
b 187 70 71 78 177
b 188 70 71 212 296
b 189 205 212 217 219 227
b 190 212 217 219 224 227
b 191 175 193 197 205 219
b 192 193 209 213 217 219
b 193 77 169 172 175 193
b 194 169 186 189 193 209
b 195 77 79 80 81 169
b 196 206 209 214 217
b 197 186 195 201 206 209
b 198 162 165 167 184
b 199 162 180 182 184 195
b 200 75 160 162 180
b 201 1 2 7 17 241 244 245 246 254 256
b 202 1 2 7 10 17 241 245 246 254 256
b 203 1 2 7 10 12 17 241 245 254 256
b 204 2 7 10 12 14 241 245 254 256
b 205 2 7 10 12 13 14 241 245 254
b 206 2 7 10 11 12 13 14 245
b 207 2 7 11 12 13 14 261
b 208 11 13 14 15 261
b 209 7 14 260 261
b 210 2 11 12 261 264
b 211 2 12 264 267
b 212 10 11 13 245 258
b 213 1 2 10 12 17 266
b 214 1 10 17 259 266
b 215 1 2 266 268
b 216 10 17 245 246 249
b 217 1 2 17 194 195 202 234 246 251
b 218 1 17 194 195 202 234 240 246 251
b 219 1 16 17 194 234 240 246 251
b 220 1 16 17 18 240 246 251
b 221 16 17 18 240 246 248
b 222 18 240 248 250
b 223 194 195 198 202 240
b 224 202 240 243 251
b 225 1 2 251 272
b 226 95 96 102 105
b 227 99 100 101 102
b 228 100 101 102 103
b 229 101 102 103 104 105
b 230 101 103 104 105 106
b 231 67 101 103 104 106
b 232 95 101 102 104 105
b 233 22 31 32 118
b 234 22 31 32 109 120
b 235 31 32 33 109 120
b 236 31 33 109 120 122
b 237 31 33 109 119 122
b 238 29 33 109 119 122
b 239 29 109 119 122 125
b 240 29 109 119 125
b 241 22 32 109 116 120
b 242 22 24 32 116 120
b 243 22 24 32 116 117
b 244 22 109 113 116
b 245 22 113 114 116
b 246 36 109 113 116
b 247 34 36 109 113
b 248 34 35 36 109
b 249 34 35 109 112
b 250 35 109 110 112
b 251 35 39 109 110
b 252 37 39 109 110
b 253 37 39 109 111 285
b 254 38 109 111 285
b 255 19 25 26 130
b 256 19 21 25 26
b 257 19 21 26 129
b 258 212 227 233 236
b 259 212 227 231 236
b 260 212 224 227 231
b 261 5 6 7 274
b 262 16 17 18 278
b 263 19 20 21 279
b 264 22 24 116 280
b 265 73 74 75 297
b 266 34 35 36 115
b 267 34 35 36 284
b 268 28 29 119 125
b 269 28 29 125 126
b 270 28 29 124 126 282
b 271 28 30 124 126 282
b 272 28 30 121 126
b 273 30 121 126 127
b 274 30 121 127 128
b 275 121 123 127 128
b 276 20 123 127 128
b 277 19 20 123 128
b 278 19 20 21 128
b 279 19 21 128 129
b 280 21 25 26 133
b 281 25 26 27 133
b 282 25 27 133 135
b 283 25 27 135 200
b 284 25 135 200 204
1 10
2 3
3 4
4 227
5 95
6 206
7 208
8 281
9 235
10 35
11 38
12 44
13 66
14 87
15 139
16 17
17 18
18 19
19 20
20 234
20 21
21 230
21 22
23 24
24 57
25 185
26 195
27 144
28 112
29 126
30 59
31 32
32 226
33 225
34 264
35 36
36 37
37 38
38 39
39 40
40 41
41 42
42 43
43 44
44 45
45 46
46 47
47 48
48 49
49 51
50 51
51 52
52 53
53 54
54 55
55 56
56 258
57 231
58 188
59 130
60 61
60 201
60 217
61 62
61 167
62 63
62 166
63 64
63 165
64 65
64 164
65 66
66 67
67 68
68 69
69 70
69 163
70 71
70 162
71 72
71 161
72 73
72 160
73 74
73 159
74 75
75 76
75 158
76 77
77 78
77 79
78 261
79 80
79 157
80 81
81 82
82 83
82 156
83 265
83 84
84 85
84 155
85 86
86 87
86 154
87 88
88 89
88 153
89 90
90 91
90 152
91 92
92 93
92 150
93 94
94 95
94 149
95 96
96 97
97 98
97 146
98 99
99 100
100 101
101 102
102 103
103 104
104 105
105 106
106 107
106 144
107 108
107 143
108 109
108 142
109 110
109 141
110 111
110 139
110 140
111 112
112 113
113 114
113 138
114 115
115 116
115 137
116 117
116 136
117 118
118 119
118 135
119 120
119 122
120 121
121 284
122 123
123 124
124 125
124 134
125 126
125 127
127 128
127 132
127 133
128 129
128 131
129 130
144 145
146 147
147 148
150 151
167 168
167 200
168 169
168 199
169 170
169 198
170 171
171 172
172 173
172 197
173 174
173 196
174 175
175 176
176 177
176 195
177 178
177 194
178 179
178 193
179 180
179 192
180 181
180 191
181 182
181 189
182 183
183 184
183 188
184 185
184 187
185 186
189 190
190 260
201 202
202 203
202 216
203 204
203 213
204 205
205 206
206 207
206 212
207 208
207 209
207 210
210 211
213 214
213 215
217 218
217 225
218 219
218 223
218 224
219 220
220 262
220 221
221 222
226 232
227 228
228 229
229 232
229 230
230 231
233 234
234 241
234 235
235 236
236 237
237 238
238 239
239 268
239 240
241 242
241 244
242 264
242 243
244 245
244 246
246 247
247 248
248 266
248 267
248 249
249 250
250 251
251 252
252 253
253 254
255 256
256 280
256 257
257 279
258 259
259 260
263 278
268 269
269 270
270 271
271 272
272 273
273 274
274 275
275 276
276 277
277 278
278 279
280 281
281 282
282 283
283 284
END

EOF
